Traveling Salesman Problem/TSP_generados/Aleatorio1621103314_9.tsp
NAME: Aleatorio1621103314_9.tsp
COMMENT: Randomly generated scenario
TYPE: TSP
DIMENSION: 9
EDGE_WEIGHT_TYPE: ATT
NODE_COORD_SECTION
1 17.13 9.41
2 49.15 6.34
3 27.43 49.54
4 30.56 44.27
5 37.52 5.48
6 27.15 5.77
7 6.13 3.6
8 43.85 45.48
9 45.81 38.8
