Traveling Salesman Problem/TSP_generados/Aleatorio1621103314_9.opt.tour
NAME: Aleatorio1621103314_9.opt.tour
COMMENT: Optimal solution for Aleatorio1621103314_9 (154.84163617561273)
TYPE: TOUR
DIMENSION: 9
TOUR_SECTION
1 6 5 2 9 8 4 3 7
-1
EOF
